 &control
    calculation='nscf'
    prefix='Co_hcp-fm'
    outdir = '../temp/'
    pseudo_dir = '../PP/'
 /        
 &system    
    ibrav=  4
    celldm(1) = <-- Fill this in 
    celldm(3) = <-- Fill this in
    nat=  2
    ntyp= 1
    ecutwfc = 55
    ecutrho = 440
    occupations = 'tetrahedra'
    nspin = 2
    starting_magnetization(1) =  0.7
 /
 &electrons
 /
 ATOMIC_SPECIES
  Co  58.933194  Co.pbe-n-rrkjus_psl.1.0.0.UPF 
 ATOMIC_POSITIONS crystal
  Co  0.333333 0.666667 0.25
  Co  0.666667 0.333333 0.75
 K_POINTS automatic
    18 18 9 0 0 0 
