      &CONTROL
         calculation = 'relax'
         restart_mode = 'from_scratch'
         prefix = 'diamond.8.04475..'
         tstress = .true.
         tprnfor = .true.
         pseudo_dir = ''
         outdir=''
         etot_conv_thr = 1.0D-5 ! 1 convergence criteria  
         forc_conv_thr = 1.0D-4 ! 2nd conv. criteria
      /
      &SYSTEM
         ibrav = 8
         celldm(1) = 8.04475
         celldm(2) = 1
         celldm(3) = 1.00000000000000000000
         nat = 8
         ntyp = 2
         ecutwfc = 
      /
      &ELECTRONS
         diagonalization = 'david'
         mixing_mode = 'plain'
         mixing_beta = 0.7
         conv_thr = 1.0d-8
      /
      ATOMIC_SPECIES
         Mg  24.305   Mg.pbe.UPF
         O   15.9994  O.pbe.UPF
      ATOMIC_POSITIONS {alat} 
         Mg 0.00 0.00 0.00
         Mg 0.00 0.50 0.50
         Mg 0.50 0.00 0.50
         Mg 0.50 0.50 0.00
         O  0.50 0.00 0.00
         O  0.00 0.50 0.00
         O  0.00 0.00 0.50
         O  0.50 0.50 0.50
      K_POINTS {automatic}
             0 0 0
