      &CONTROL
         calculation = 'relax'
         restart_mode = 'from_scratch'
         prefix = 'diamond.1.007857.70.4'
         tstress = .true.
         tprnfor = .true.
         pseudo_dir = '../pseudo'
         outdir='/scratch/nsbarchi/tmp_2'
         etot_conv_thr = 1.0D-5 ! 1 convergence criteria  
         forc_conv_thr = 1.0D-4 ! 2nd conv. criteria
      /

      &SYSTEM
         ibrav = 0
         celldm(1) = 8.04475


         nat = 8
         ntyp = 2
         ecutwfc = 70
      /

      &ELECTRONS
         diagonalization = 'david'
         mixing_mode = 'plain'
         mixing_beta = 0.7
         conv_thr = 1.0d-8
      /
      
      &IONS
      ion_dynamics = 'bfgs'
      /

      &CELL
      cell_dynamics = 'bfgs'
      press = 0.0d0
      press_conv_thr = 0.01D0
      /

      ATOMIC_SPECIES
         Mg  24.305   Mg.pbe.UPF
         O   15.9994  O.pbe.UPF
      CELL_PARAMETERS (alat= 8.04475)
             1.007857        0.000000000   0.000000000
         0.000000000       .992143        0.000000000
         0.000000000   0.000000000       1.00006173626013052995     
      ATOMIC_POSITIONS {alat} 
         Mg 0.00 0.00 0.00
         Mg 0.00 0.50 0.50
         Mg 0.50 0.00 0.50
         Mg 0.50 0.50 0.00
         O  0.50 0.00 0.00
         O  0.00 0.50 0.00
         O  0.00 0.00 0.50
         O  0.50 0.50 0.50
      K_POINTS {automatic}
         4 4 4  0 0 0
