 &bands
    prefix  = 'MgO'
    outdir = '../temp'
    filband = 'MgO.bands'
 /
