 &bands
    prefix  = 'Mg'
    outdir = '../temp'
    filband = 'Mg.bands'
 /
