&dos
  prefix      = 'Mg'
  outdir      = '../temp'

  emin        = -20.0
  emax        = 40.0
  deltae      = 0.1

  fildos      = 'Mg.dos.dat'
/
